16622
1 0 1 0 0 1 1 0 0 0 0 1 0 0 1 0 0 1 0 0 1 0 0 0 1 0 0 0 0 0 
20 5 6 17 20 11 2 5 6 17 5 20 20 20 17 2 14 17 24 0 14 17 5 2 5 20 17 24 5 24 5 11 6 11 20 14 5 24 11 14 11 14 5 6 24 17 0 20 11 20 11 14 2 5 6 14 2 11 11 17 0 5 14 11 11 11 5 17 24 5 14 6 11 14 5 20 5 20 14 24 6 0 20 0 17 17 17 0 20 11 2 24 2 0 2 24 17 14 11 20 20 17 17 11 2 11 17 0 14 14 14 14 2 11 11 0 5 24 24 24 5 6 5 17 20 11 24 24 24 11 0 24 5 24 14 2 17 11 20 17 0 20 14 17 20 0 11 5 2 24 
